[[1,2,29,39,47,70,89,113,137,156,201,214,250,253,273,310,371,457,709,848],[38,68,75,161,198,200,317,394,398,409,632,671,684,691,704,711,730,926,994,999],[24,65,82,153,166,192,229,272,276,366,459,586,735,802,851,920,941,958,959,964],[225,296,344,346,348,363,375,399,424,466,473,480,532,550,572,579,594,786,857,991],[55,64,73,174,215,324,338,342,376,566,607,633,670,753,756,764,795,828,832,835]]